LatticeConstant 1.0 Ang
%block LatticeVectors
 10.00000000 0.00000000 0.00000000
 0.00000000 10.00000000 0.00000000
 0.00000000 0.00000000 10.00000000
%endblock LatticeVectors

NumberOfAtoms 3
AtomicCoordinatesFormat Ang
%block AtomicCoordinatesAndAtomicSpecies
 -1.16000000  0.00000000  0.00000000 1 # 1: O
  0.00000000  0.00000000  0.00000000 2 # 2: C
  1.16000000  0.00000000  0.00000000 1 # 3: O
%endblock AtomicCoordinatesAndAtomicSpecies

NumberOfSpecies 2
%block ChemicalSpeciesLabel
 1 8 O
 2 6 C
%endblock ChemicalSpeciesLabel
