LatticeConstant 1.0 Ang
%block LatticeVectors
 10.00000000 0.00000000 0.00000000
 0.00000000 10.00000000 0.00000000
 0.00000000 0.00000000 10.00000000
%endblock LatticeVectors

NumberOfAtoms 4
AtomicCoordinatesFormat Ang
%block AtomicCoordinatesAndAtomicSpecies
 -1.50000000  0.00000000  0.00000000 1 # 1: O
 -2.30000000 -0.60000000  0.00000000 1 # 2: O
  0.00000000  0.00000000  0.00000000 2 # 3: H
  0.80000000  0.60000000  0.00000000 2 # 4: H
%endblock AtomicCoordinatesAndAtomicSpecies

NumberOfSpecies 2
%block ChemicalSpeciesLabel
 1 8 O
 2 1 H
%endblock ChemicalSpeciesLabel
